50
    55    38    86    94    68    63    34    33    38    41    79    34    87    64    40    47    53    64   100    13    92    15     9    64    72    31    80    20    79    68    96    96    14    19     2    94    93    23    10     8    48    54    98    22    27    31     7    12    93    11
     5     1    10     4     8     5     2     9     2    10     1     3     5    10     5    10     3     5     2     1     5     3    10     1     5     8     6     7     2     4     8     1     8     8     3     1     3     9     8     3     9     7     8     1     3     6     1     7     7     3
     0     0     0   133     0   473   648     0   675     0   324    45     0   540     0   330   555     0     0   233   522     0   150   474     0   601     0   610     0    51     0   694   681     0   247   658     0   473     0   454     0     0   175     0     0     0     0     0     0     0
